
Gurobi 9.1.2 (linux64) logging started Tue Apr 12 19:53:47 2022

Changed value of parameter LogFile to ls_sym_v-(6, 1).log
   Prev:   Default: 
Changed value of parameter MIPFocus to 1
   Prev: 0  Min: 0  Max: 3  Default: 0
Changed value of parameter TimeLimit to 10800.0
   Prev: inf  Min: 0.0  Max: inf  Default: inf
Warning: variable name "X[(0, 2),(0, 0)]" has a space
Warning: constraint name "flow-constr-t0-v(3, 5)" has a space
Warning: to let Gurobi read it back, use rlp format
Gurobi Optimizer version 9.1.2 build v9.1.2rc0 (linux64)
Thread count: 32 physical cores, 64 logical processors, using up to 32 threads
Optimize a model with 4855 rows, 4352 columns and 16616 nonzeros
Model fingerprint: 0x55964abc
Variable types: 512 continuous, 3840 integer (3840 binary)
Coefficient statistics:
  Matrix range     [1e+00, 7e+04]
  Objective range  [1e-01, 1e-01]
  Bounds range     [1e+00, 3e+04]
  RHS range        [1e+00, 7e+04]
Presolve removed 291 rows and 296 columns
Presolve time: 0.08s
Presolved: 4564 rows, 4056 columns, 22292 nonzeros
Variable types: 512 continuous, 3544 integer (3544 binary)

Root relaxation: objective 6.400000e+01, 149 iterations, 0.00 seconds

    Nodes    |    Current Node    |     Objective Bounds      |     Work
 Expl Unexpl |  Obj  Depth IntInf | Incumbent    BestBd   Gap | It/Node Time

     0     0   64.00000    0   36          -   64.00000      -     -    0s
     0     0   64.00000    0   75          -   64.00000      -     -    0s
     0     0   64.00000    0   87          -   64.00000      -     -    0s
H    0     0                    8993.4999992   64.00000  99.3%     -    0s
     0     0   64.00000    0   40 8993.50000   64.00000  99.3%     -    0s
H    0     0                    8993.1249992   64.00000  99.3%     -    0s
H    0     0                     489.0000000   64.00000  86.9%     -    0s
     0     0   64.00000    0   45  489.00000   64.00000  86.9%     -    0s
     0     0   64.00000    0   43  489.00000   64.00000  86.9%     -    0s
H    0     0                     364.0625000   64.00000  82.4%     -    0s
     0     0   64.00000    0   57  364.06250   64.00000  82.4%     -    0s
     0     0   64.00000    0   40  364.06250   64.00000  82.4%     -    0s
H    0     0                     357.8437500   64.00000  82.1%     -    0s
H    0     0                     253.3984375   64.00000  74.7%     -    0s
     0     0   64.00000    0   57  253.39844   64.00000  74.7%     -    0s
H    0     0                     171.1250000   64.00000  62.6%     -    0s
     0     0   64.00000    0   50  171.12500   64.00000  62.6%     -    0s
H    0     0                     170.7500000   64.00000  62.5%     -    1s
H    0     0                     163.8750000   64.00000  60.9%     -    1s
H    0     0                     137.6875000   64.00000  53.5%     -    1s
     0     2   64.00000    0   50  137.68750   64.00000  53.5%     -    1s
H    1     4                     120.6875000   64.00000  47.0%   596    1s
H   31    52                     119.5000000   64.00000  46.4%  38.5    2s
H   31    52                     114.6875000   64.00000  44.2%  38.5    2s
H   34    52                     111.6875000   64.00000  42.7%  35.3    2s
H   51    52                     108.7994186   64.00000  41.2%  24.0    2s
H   95   114                      94.6250000   64.00000  32.4%  14.8    4s
H   96   114                      88.0451389   64.00000  27.3%  14.6    4s
H  102   114                      86.5312500   64.00000  26.0%  13.9    4s
H  115   114                      83.0959821   64.00000  23.0%  12.5    4s
H  139   146                      82.1785714   64.00000  22.1%  10.6    4s
H  159   178                      80.4326923   64.00000  20.4%   9.5    5s
H  160   178                      76.3680556   64.00000  16.2%   9.5    5s
H  171   178                      74.2187500   64.00000  13.8%   9.0    5s
H  179   178                      72.1250000   64.00000  11.3%   8.6    5s
H  191   210                      70.3207237   64.00000  8.99%   8.2    7s
H  196   210                      69.9375000   64.00000  8.49%   8.1    7s
H  198   210                      69.3378906   64.00000  7.70%   8.1    7s
H  210   210                      69.0277777   64.00000  7.28%   7.9    7s
H  447   443                      68.5000000   64.00000  6.57%   4.8    8s
H  448   443                      68.4781250   64.00000  6.54%   4.8    8s
H  449   443                      68.0000000   64.00000  5.88%   4.8    8s
H  480   474                      67.2250000   64.00000  4.80%   4.8   10s
H  483   474                      66.4000000   64.00000  3.61%   4.8   10s
H  496   474                      66.2500000   64.00000  3.40%   4.7   10s
H  520   506                      66.0000000   64.00000  3.03%   4.6   11s
H  539   506                      65.6964286   64.00000  2.58%   4.6   11s
H  571  1994                      65.6250000   64.00000  2.48%   4.5   11s
H 2295  2246                      65.5000000   64.00000  2.29%   3.9   12s
H 2441  2246                      65.3986486   64.00000  2.14%   4.0   12s
H 7018  5780                      65.2736486   64.00000  1.95%   4.3   13s
H 7018  5491                      65.1111111   64.00000  1.71%   4.3   13s
H 7018  5217                      65.0000000   64.00000  1.54%   4.3   13s
  7025  5221   64.00000   38   62   65.00000   64.00000  1.54%   4.3   15s
  7124  5312   64.00000   19  111   65.00000   64.00000  1.54%   7.9   21s
H 7136  5046                      64.9999998   64.00000  1.54%   8.0   21s
H 7220  4854                      64.9999997   64.00000  1.54%   8.1   22s
H 7221  4618                      64.9999997   64.00000  1.54%   8.1   22s
H 7226  4392                      64.9999996   64.00000  1.54%   8.1   22s
H 7244  4173                      64.9999996   64.00000  1.54%   8.6   22s
H 7252  4001                      64.9999996   64.00000  1.54%   9.0   23s
H 7253  3807                      64.9999995   64.00000  1.54%   9.0   23s
H 7269  3620                      64.9999995   64.00000  1.54%   9.0   23s
H 7277  3444                      64.9999995   64.00000  1.54%   9.0   23s
H 7508  3456                      64.9999994   64.00000  1.54%   9.2   24s
H 7509  3299                      64.9999993   64.00000  1.54%   9.2   24s
H 7566  3956                      64.9999993   64.00000  1.54%   9.3   24s
H 7689  3773                      64.9999992   64.00000  1.54%  10.0   24s
  8368  6118   64.00000   39   87   65.00000   64.00000  1.54%  11.0   25s
H 8866  5818                      64.9999991   64.00000  1.54%  11.5   25s
H 9354  5528                      64.9999991   64.00000  1.54%  13.7   25s
H11085  4861                      64.9999991   64.00000  1.54%  18.4   26s
H11087  4744                      64.9999990   64.00000  1.54%  18.4   26s
H11327  7192                      64.9999990   64.00000  1.54%  18.4   26s
H11764  6943                      64.9999989   64.00000  1.54%  19.0   26s
H13939  6583                      64.9999989   64.00000  1.54%  22.0   28s
H13947  6583                      64.9999987   64.00000  1.54%  22.0   28s
H14208  7330                      64.9999986   64.00000  1.54%  22.1   29s
 14814 10652   64.00000   24   65   65.00000   64.00000  1.54%  23.0   30s
H18423 10689                      64.9999986   64.00000  1.54%  28.6   31s
H20597 13033                      64.9999986   64.00000  1.54%  29.9   32s
H21120 13064                      64.9999985   64.00000  1.54%  30.0   33s
H21122 13064                      64.9999985   64.00000  1.54%  30.0   33s
H21140 13064                      64.9999984   64.00000  1.54%  30.0   33s
 24212 19260   64.00000  296  123   65.00000   64.00000  1.54%  31.4   35s
H28456 19367                      64.9999984   64.00000  1.54%  32.0   35s
H28570 19367                      64.9999980   64.00000  1.54%  32.2   35s
 40240 29461     cutoff  443        65.00000   64.00000  1.54%  32.7   40s

Cutting planes:
  Learned: 13
  Gomory: 8
  Cover: 120
  Implied bound: 121
  Clique: 71
  MIR: 158
  Flow cover: 248
  GUB cover: 7
  RLT: 59
  Relax-and-lift: 322

Explored 44760 nodes (1471786 simplex iterations) in 42.94 seconds
Thread count was 32 (of 64 available processors)

Solution count 10: 65 65 65 ... 65.1111

Solve interrupted
Best objective 6.499999800165e+01, best bound 6.400000000000e+01, gap 1.5385%
